data/solutions/recovery/degenerate/intermediate/binding/degenerate_intermediate_instance23/20.sol
Elapsed time: 0.05
Upper bound: 238616608.0
Planning weighted value: 9.0239685645e+11
C[0]=238616608.0
C[1]=238253998.0
C[2]=236005336.0
C[3]=234975082.0
C[4]=226227119.0
C[5]=225437601.0
C[6]=220862734.0
C[7]=220428501.0
C[8]=219785565.0
C[9]=213116560.0
C[10]=208696796.0
C[11]=0.0
y[0]=1
y[1]=2
y[2]=6
y[3]=10
y[4]=2
y[5]=6
y[6]=0
y[7]=3
y[8]=1
y[9]=5
y[10]=1
y[11]=8
y[12]=1
y[13]=2
y[14]=6
y[15]=1
y[16]=5
y[17]=8
y[18]=9
y[19]=2
y[20]=3
y[21]=2
y[22]=6
y[23]=10
y[24]=8
y[25]=6
y[26]=8
y[27]=2
y[28]=3
y[29]=8
y[30]=6
y[31]=4
y[32]=9
y[33]=2
y[34]=5
y[35]=3
y[36]=1
y[37]=10
y[38]=7
y[39]=1
y[40]=5
y[41]=1
y[42]=6
y[43]=9
y[44]=1
y[45]=4
y[46]=0
y[47]=7
y[48]=9
y[49]=8
y[50]=0
y[51]=10
y[52]=5
y[53]=4
y[54]=10
y[55]=0
y[56]=4
y[57]=3
y[58]=0
y[59]=10
y[60]=4
y[61]=0
y[62]=7
y[63]=7
y[64]=5
y[65]=7
y[66]=0
y[67]=2
y[68]=4
y[69]=7
y[70]=0
y[71]=9
y[72]=9
y[73]=10
y[74]=0
y[75]=1
y[76]=8
y[77]=5
